83 45 8 84 96 
63 11 64 49 48 
33 65 71 66 20 1 
47 36 19 46 17 60 89 
30 51 9 81 3 77 
72 39 23 67 56 4 54 
2 15 57 87 13 
31 62 88 90 10 32 70 
27 69 76 50 68 24 80 
53 40 26 55 25 
28 12 29 79 78 34 35 
59 5 61 16 85 6 
52 82 7 18 
95 92 98 99 94 37 97 
42 14 44 38 86 43 100 91 93 
21 73 75 22 41 74 58 
